[runlim] version:		1.10
[runlim] time limit:		1800 seconds
[runlim] real time limit:	1800 seconds
[runlim] space limit:		30000 MB
[runlim] argv[0]:		python
[runlim] argv[1]:		FE.py
[runlim] argv[2]:		T-dwt__592.mtx.rnd
[runlim] start:			Thu Oct  3 16:10:39 2024
[runlim] main pid:		412902
[runlim] log captured:
[runlim] sample:		10.0 time, 11.0 real, 718.7 MB
[runlim] sample:		20.0 time, 21.0 real, 1337.5 MB
[runlim] sample:		30.0 time, 31.0 real, 2046.7 MB
[runlim] sample:		40.0 time, 41.0 real, 2574.1 MB
[runlim] sample:		50.0 time, 51.0 real, 3206.6 MB
[runlim] sample:		60.0 time, 61.0 real, 3998.3 MB
[runlim] sample:		70.0 time, 71.0 real, 4768.4 MB
[runlim] sample:		80.0 time, 81.0 real, 5544.4 MB
[runlim] sample:		90.0 time, 91.0 real, 6310.4 MB
[runlim] sample:		100.0 time, 101.0 real, 12476.2 MB
150
103
Version identifier: 20.1.0.0 | 2020-11-10 | 9bedb6d68
CPXPARAM_Simplex_PGradient                       4
CPXPARAM_Read_DataCheck                          1
CPXPARAM_MIP_Strategy_File                       3
CPXPARAM_TimeLimit                               1800
CPXPARAM_WorkMem                                 122880
[runlim] sample:		110.0 time, 111.0 real, 6820.1 MB
[runlim] sample:		120.0 time, 121.0 real, 6820.1 MB
[runlim] sample:		130.0 time, 131.0 real, 8848.4 MB
[runlim] sample:		140.0 time, 141.0 real, 10308.1 MB
[runlim] sample:		150.0 time, 151.0 real, 10308.1 MB
[runlim] sample:		160.0 time, 161.0 real, 10308.1 MB
[runlim] sample:		170.0 time, 171.0 real, 10308.1 MB
Presolve has eliminated 296 rows and 296 columns...
[runlim] sample:		180.0 time, 181.0 real, 10308.6 MB
Tried aggregator 1 time.
[runlim] sample:		189.9 time, 191.0 real, 10308.6 MB
[runlim] sample:		204.3 time, 201.0 real, 15276.1 MB
[runlim] sample:		215.6 time, 211.0 real, 12717.0 MB
[runlim] sample:		225.6 time, 221.0 real, 12717.0 MB
[runlim] sample:		235.6 time, 231.0 real, 12717.0 MB
[runlim] sample:		245.6 time, 241.0 real, 12717.0 MB
[runlim] sample:		255.6 time, 251.0 real, 12717.0 MB
[runlim] sample:		265.6 time, 261.0 real, 12717.0 MB
[runlim] sample:		275.6 time, 271.0 real, 12717.0 MB
[runlim] sample:		285.6 time, 281.0 real, 12717.0 MB
[runlim] sample:		295.6 time, 291.0 real, 12717.0 MB
[runlim] sample:		305.6 time, 301.0 real, 12717.0 MB
[runlim] sample:		315.6 time, 311.0 real, 12717.0 MB
[runlim] sample:		325.6 time, 321.0 real, 12717.0 MB
[runlim] sample:		335.6 time, 331.0 real, 12717.0 MB
[runlim] sample:		345.6 time, 341.0 real, 12717.0 MB
[runlim] sample:		355.6 time, 351.0 real, 12717.0 MB
[runlim] sample:		365.6 time, 361.0 real, 12717.0 MB
[runlim] sample:		375.5 time, 371.0 real, 12717.0 MB
[runlim] sample:		385.5 time, 381.0 real, 12717.0 MB
[runlim] sample:		395.5 time, 391.0 real, 12717.0 MB
[runlim] sample:		405.5 time, 401.0 real, 12717.0 MB
[runlim] sample:		415.5 time, 411.0 real, 12717.0 MB
[runlim] sample:		425.5 time, 421.0 real, 12717.0 MB
Presolve has eliminated 296 rows and 296 columns...
MIP Presolve eliminated 296 rows and 296 columns.
MIP Presolve modified 229793 coefficients.
Reduced MIP has 1104393 rows, 350168 columns, and 227837893 nonzeros.
Reduced MIP has 350168 binaries, 0 generals, 0 SOSs, and 0 indicators.
Presolve time = 296.47 sec. (253483.59 ticks)
[runlim] sample:		435.5 time, 431.0 real, 13590.0 MB
[runlim] sample:		445.5 time, 441.0 real, 13590.0 MB
[runlim] sample:		455.5 time, 451.0 real, 13925.5 MB
[runlim] sample:		465.5 time, 461.0 real, 19805.6 MB
[runlim] sample:		475.5 time, 471.0 real, 24562.4 MB
[runlim] sample:		485.5 time, 481.0 real, 24562.4 MB
[runlim] sample:		495.5 time, 491.0 real, 24562.4 MB
[runlim] sample:		505.5 time, 501.0 real, 24590.2 MB
[runlim] sample:		515.5 time, 511.0 real, 24616.6 MB
[runlim] sample:		525.5 time, 521.0 real, 26182.4 MB
[runlim] sample:		535.5 time, 531.0 real, 24584.2 MB
[runlim] sample:		545.5 time, 541.0 real, 24584.2 MB
[runlim] sample:		555.5 time, 551.0 real, 24584.2 MB
[runlim] sample:		565.5 time, 561.0 real, 24584.2 MB
[runlim] sample:		575.5 time, 571.0 real, 24584.2 MB
[runlim] sample:		585.5 time, 581.0 real, 24584.2 MB
[runlim] sample:		595.5 time, 591.0 real, 24584.2 MB
[runlim] sample:		605.5 time, 601.0 real, 24584.2 MB
[runlim] sample:		615.5 time, 611.0 real, 24584.2 MB
[runlim] sample:		625.5 time, 621.0 real, 24584.2 MB
[runlim] sample:		635.5 time, 631.0 real, 24584.2 MB
[runlim] sample:		645.5 time, 641.0 real, 24584.2 MB
[runlim] sample:		655.5 time, 651.0 real, 24584.2 MB
[runlim] sample:		665.5 time, 661.0 real, 24584.2 MB
[runlim] sample:		675.5 time, 671.0 real, 24584.2 MB
[runlim] sample:		685.5 time, 681.0 real, 24584.2 MB
[runlim] sample:		695.5 time, 691.0 real, 24584.2 MB
[runlim] sample:		705.5 time, 701.0 real, 24584.2 MB
[runlim] sample:		715.5 time, 711.0 real, 24584.2 MB
[runlim] sample:		725.5 time, 721.0 real, 24584.2 MB
[runlim] sample:		735.5 time, 731.0 real, 24584.2 MB
[runlim] sample:		745.5 time, 741.0 real, 24584.2 MB
[runlim] sample:		755.5 time, 751.0 real, 24584.2 MB
[runlim] sample:		765.5 time, 761.0 real, 24584.2 MB
[runlim] sample:		775.5 time, 771.0 real, 24584.2 MB
[runlim] sample:		785.5 time, 781.0 real, 24584.2 MB
[runlim] sample:		795.5 time, 791.0 real, 16672.9 MB
[runlim] sample:		805.5 time, 801.0 real, 16672.9 MB
Probing time = 1.63 sec. (111.80 ticks)
[runlim] sample:		817.3 time, 811.0 real, 22300.8 MB
[runlim] sample:		827.3 time, 821.0 real, 22310.4 MB
[runlim] sample:		837.3 time, 831.0 real, 22316.1 MB
[runlim] sample:		847.3 time, 841.0 real, 22321.9 MB
[runlim] sample:		857.3 time, 851.0 real, 22345.5 MB
Presolve has eliminated 0 rows and 0 columns...
[runlim] sample:		867.3 time, 861.0 real, 22365.6 MB
Tried aggregator 1 time.
[runlim] sample:		878.5 time, 871.0 real, 25108.4 MB
[runlim] sample:		892.3 time, 881.0 real, 22336.3 MB
[runlim] sample:		902.3 time, 891.0 real, 22336.3 MB
[runlim] sample:		912.3 time, 901.0 real, 22336.3 MB
[runlim] sample:		922.3 time, 911.0 real, 22336.3 MB
[runlim] sample:		932.3 time, 921.0 real, 22336.3 MB
[runlim] sample:		942.3 time, 931.0 real, 22336.3 MB
[runlim] sample:		952.3 time, 941.0 real, 22336.3 MB
[runlim] sample:		962.3 time, 951.0 real, 22336.3 MB
[runlim] sample:		972.3 time, 961.0 real, 22336.3 MB
[runlim] sample:		982.3 time, 971.0 real, 22336.3 MB
[runlim] sample:		992.3 time, 981.0 real, 22336.3 MB
[runlim] sample:		1002.3 time, 991.0 real, 22336.3 MB
[runlim] sample:		1012.3 time, 1001.0 real, 22336.3 MB
[runlim] sample:		1022.3 time, 1011.0 real, 22336.3 MB
[runlim] sample:		1032.3 time, 1021.0 real, 22336.3 MB
[runlim] sample:		1042.3 time, 1031.0 real, 22336.3 MB
[runlim] sample:		1052.3 time, 1041.0 real, 22336.3 MB
[runlim] sample:		1062.3 time, 1051.0 real, 22336.3 MB
[runlim] sample:		1072.3 time, 1061.0 real, 22336.3 MB
[runlim] sample:		1082.3 time, 1071.0 real, 22336.3 MB
[runlim] sample:		1092.3 time, 1081.0 real, 22336.3 MB
[runlim] sample:		1102.3 time, 1091.0 real, 22336.3 MB
Presolve has eliminated 0 rows and 0 columns...
[runlim] sample:		1112.3 time, 1101.0 real, 22336.3 MB
[runlim] sample:		1122.3 time, 1111.0 real, 28821.5 MB
Detecting symmetries...
[runlim] sample:		1132.3 time, 1121.0 real, 25992.4 MB
[runlim] sample:		1142.3 time, 1131.0 real, 26000.7 MB
MIP Presolve modified 25235 coefficients.
Reduced MIP has 1104148 rows, 350168 columns, and 227812658 nonzeros.
Reduced MIP has 350168 binaries, 0 generals, 0 SOSs, and 0 indicators.
Presolve time = 327.80 sec. (278936.12 ticks)
[runlim] sample:		1152.3 time, 1141.0 real, 14472.5 MB
[runlim] sample:		1178.0 time, 1151.0 real, 28000.2 MB
[runlim] sample:		1208.0 time, 1161.0 real, 29753.0 MB
[runlim] end:			Thu Oct  3 16:30:03 2024
[runlim] status:		out of memory
[runlim] result:		3
[runlim] children:		0
[runlim] real:			1164.21 seconds
[runlim] time:			1217.24 seconds
[runlim] space:			30025.3 MB
[runlim] samples:		11632
